
Gurobi 11.0.3 (linux64) logging started Mon Dec 15 14:38:05 2025

Set parameter LogFile to value "./log/train/IS_1000_6/IS_1.lp.log"
Set parameter TimeLimit to value 3600
Gurobi Optimizer version 11.0.3 build v11.0.3rc0 (linux64 - "Ubuntu 22.04.5 LTS")

CPU model: AMD Ryzen 9 9900X 12-Core Processor, instruction set [SSE2|AVX|AVX2|AVX512]
Thread count: 12 physical cores, 24 logical processors, using up to 24 threads

Optimize a model with 6128 rows, 1000 columns and 12054 nonzeros
Model fingerprint: 0xade027f5
Variable types: 0 continuous, 1000 integer (1000 binary)
Coefficient statistics:
  Matrix range     [1e+00, 1e+00]
  Objective range  [1e+00, 1e+00]
  Bounds range     [1e+00, 1e+00]
  RHS range        [1e+00, 1e+00]
Found heuristic solution: objective 228.0000000
Presolve removed 1421 rows and 0 columns
Presolve time: 0.01s
Presolved: 4707 rows, 1000 columns, 10637 nonzeros
Variable types: 0 continuous, 1000 integer (1000 binary)

Root relaxation: objective 4.475000e+02, 2102 iterations, 0.06 seconds (0.11 work units)

    Nodes    |    Current Node    |     Objective Bounds      |     Work
 Expl Unexpl |  Obj  Depth IntInf | Incumbent    BestBd   Gap | It/Node Time

     0     0  447.50000    0  865  228.00000  447.50000  96.3%     -    0s
H    0     0                     348.0000000  447.50000  28.6%     -    0s
     0     0  438.02418    0  980  348.00000  438.02418  25.9%     -    0s
H    0     0                     375.0000000  438.02418  16.8%     -    0s
H    0     0                     381.0000000  438.02418  15.0%     -    0s
     0     0  438.00202    0  978  381.00000  438.00202  15.0%     -    0s
     0     0  437.99961    0  978  381.00000  437.99961  15.0%     -    0s
H    0     0                     382.0000000  437.99961  14.7%     -    0s
     0     0  437.99961    0  978  382.00000  437.99961  14.7%     -    0s
     0     0  433.04966    0  984  382.00000  433.04966  13.4%     -    0s
     0     0  432.71276    0  981  382.00000  432.71276  13.3%     -    0s
     0     0  432.71276    0  984  382.00000  432.71276  13.3%     -    0s
     0     0  432.71276    0  980  382.00000  432.71276  13.3%     -    0s
     0     0  432.71276    0  980  382.00000  432.71276  13.3%     -    0s
     0     0  429.01226    0  976  382.00000  429.01226  12.3%     -    1s
     0     0  428.82122    0  982  382.00000  428.82122  12.3%     -    1s
     0     0  428.74906    0  982  382.00000  428.74906  12.2%     -    1s
     0     0  428.74751    0  982  382.00000  428.74751  12.2%     -    1s
     0     0  428.11742    0  977  382.00000  428.11742  12.1%     -    1s
     0     0  428.08214    0  979  382.00000  428.08214  12.1%     -    1s
     0     0  428.07529    0  980  382.00000  428.07529  12.1%     -    1s
     0     0  428.07092    0  979  382.00000  428.07092  12.1%     -    1s
     0     0  427.17469    0  983  382.00000  427.17469  11.8%     -    1s
     0     0  427.07871    0  982  382.00000  427.07871  11.8%     -    1s
     0     0  427.04694    0  981  382.00000  427.04694  11.8%     -    1s
     0     0  427.03235    0  983  382.00000  427.03235  11.8%     -    1s
     0     0  427.02881    0  984  382.00000  427.02881  11.8%     -    1s
     0     0  426.31992    0  984  382.00000  426.31992  11.6%     -    1s
H    0     0                     384.0000000  426.31992  11.0%     -    1s
     0     0  426.24819    0  984  384.00000  426.24819  11.0%     -    1s
     0     0  426.22789    0  983  384.00000  426.22789  11.0%     -    1s
     0     0  426.22256    0  985  384.00000  426.22256  11.0%     -    1s
     0     0  425.33336    0  986  384.00000  425.33336  10.8%     -    1s
     0     0  425.25280    0  985  384.00000  425.25280  10.7%     -    2s
     0     0  425.23148    0  987  384.00000  425.23148  10.7%     -    2s
     0     0  425.23056    0  987  384.00000  425.23056  10.7%     -    2s
     0     0  424.57337    0  991  384.00000  424.57337  10.6%     -    2s
     0     0  424.37984    0  987  384.00000  424.37984  10.5%     -    2s
     0     0  424.36973    0  987  384.00000  424.36973  10.5%     -    2s
     0     0  424.36641    0  988  384.00000  424.36641  10.5%     -    2s
     0     0  423.95075    0  986  384.00000  423.95075  10.4%     -    2s
